certificates/rado_a11_c232_N22.cnf
c Rad2 upper bound instance: x1 + 11*x2 - x3 = 232, interval [1,22]
p cnf 22 84
1 11 22 0
-1 -11 -22 0
1 2 21 0
-1 -2 -21 0
2 12 22 0
-2 -12 -22 0
2 3 21 0
-2 -3 -21 0
3 13 22 0
-3 -13 -22 0
3 4 21 0
-3 -4 -21 0
4 14 22 0
-4 -14 -22 0
4 5 21 0
-4 -5 -21 0
5 15 22 0
-5 -15 -22 0
5 6 21 0
-5 -6 -21 0
6 16 22 0
-6 -16 -22 0
6 7 21 0
-6 -7 -21 0
7 17 22 0
-7 -17 -22 0
7 8 21 0
-7 -8 -21 0
8 18 22 0
-8 -18 -22 0
8 9 21 0
-8 -9 -21 0
9 19 22 0
-9 -19 -22 0
9 10 21 0
-9 -10 -21 0
10 20 22 0
-10 -20 -22 0
10 11 21 0
-10 -11 -21 0
11 21 22 0
-11 -21 -22 0
11 12 21 0
-11 -12 -21 0
12 22 0
-12 -22 0
1 13 20 0
-1 -13 -20 0
12 13 21 0
-12 -13 -21 0
2 14 20 0
-2 -14 -20 0
13 14 21 0
-13 -14 -21 0
3 15 20 0
-3 -15 -20 0
14 15 21 0
-14 -15 -21 0
4 16 20 0
-4 -16 -20 0
15 16 21 0
-15 -16 -21 0
5 17 20 0
-5 -17 -20 0
16 17 21 0
-16 -17 -21 0
6 18 20 0
-6 -18 -20 0
17 18 21 0
-17 -18 -21 0
7 19 20 0
-7 -19 -20 0
18 19 21 0
-18 -19 -21 0
8 20 0
-8 -20 0
19 20 21 0
-19 -20 -21 0
9 20 21 0
-9 -20 -21 0
20 21 0
-20 -21 0
21 22 0
-21 -22 0
