certificates/rado_a11_c232_N22.drat
-22 0
12 0
21 0
-13 0
-20 0
-11 0
3 0
10 0
8 0
1 0
-2 0
-4 0
-9 0
-7 0
14 0
16 0
19 0
17 0
-15 0
0
